/*********************************************
 * OPL 12.6.0.0 Data
 * Author: Adrian Rodriguez Bazaga, Pau Rodriguez Esmerats
 * Creation Date: 22/11/2017 at 18:56:20
 *********************************************/

nNurses=47;
maxConsec=2;
maxPresence=7;
maxHours=5;
minHours=1;
demand= [10 16 17 17 16 17 17 17 15 8 0 1 0 2 0 1 0 1 0 1 5 13 8 7  ];
